NAME : expansion
TYPE : TSP
DIMENSION : 50
EDGE_WEIGHT_TYPE : EUC_2D
NODE_COORD_SECTION
1 744922 73843
2 766101 51003
3 522893 746815
4 224631 730492
5 542591 526674
6 716603 123642
7 758373 117452
8 606266 772072
9 680406 129751
10 361638 847170
11 885537 386929
12 838242 77847
13 541675 810375
14 475906 335589
15 430569 755419
16 364027 713694
17 882154 445339
18 624300 754569
19 643935 19419
20 786502 810169
21 453139 849291
22 915442 865298
23 882476 987588
24 350498 841279
25 420198 752169
26 692925 973466
27 466136 782701
28 626874 877632
29 437857 755258
30 768284 429086
31 648711 914041
32 653380 164382
33 748017 112183
34 694253 928523
35 893727 510736
36 467225 832403
37 874211 982015
38 643618 872544
39 767245 426668
40 819147 429521
41 865141 819431
42 967647 862934
43 435187 910415
44 644280 797515
45 848951 490104
46 435057 719567
47 736697 67200
48 473725 733822
49 473283 711205
50 634791 971284
EOF
